
Route #1: 6 47 26 39 45 41 
Route #2: 2 48 40 44 34 16 36 33 43 11 12 30 
Route #3: 7 25 49 20 37 27 
Route #4: 35 23 38 22 46 13 3 
Route #5: 4 18 32 28 29 21 
Route #6: 5 19 
Route #7: 14 42 8 17 1 10 24 
Route #8: 31 9 15 
cost 1561.87
total time is 5.4